Optimal - objective value 526.00000000
      0 C_0                    26                       0
      1 C_1                    12                       0
      2 C_2                     6                       0
      3 C_3                    38                       0
      4 C_4                    22                       0
      5 C_5                    40                       0
      6 C_6                    15                       0
      8 x_0_1                   1                     693
     11 x_1_1                   1                    2310
     15 x_2_2                   1                    3927
     18 x_3_2                   1                     693
     19 x_4_0                   1                    2310
     22 x_5_0                   1                     693
     27 x_6_2                   1                    2310
     31 d_0_2_0                 1                       0
     32 d_0_2_1                 1                       0
     33 d_0_2_2                 1                       0
     34 d_0_3_0                 1                       0
     35 d_0_3_1                 1                       0
     36 d_0_3_2                 1                       0
     37 d_0_4_0                 1                       0
     39 d_0_4_2                 1                       0
     40 d_0_5_0                 1                       0
     41 d_0_5_1                 1                       0
     42 d_0_5_2                 1                       0
     43 d_0_6_0                 1                       0
     44 d_0_6_1                 1                       0
     45 d_0_6_2                 1                       0
     47 d_1_2_1                 1                       0
     49 d_1_3_0                 1                       0
     50 d_1_3_1                 1                       0
     52 d_1_4_0                 1                       0
     53 d_1_4_1                 1                       0
     54 d_1_4_2                 1                       0
     55 d_1_5_0                 1                       0
     56 d_1_5_1                 1                       0
     58 d_1_6_0                 1                       0
     59 d_1_6_1                 1                       0
     60 d_1_6_2                 1                       0
     61 d_2_3_0                 1                       0
     62 d_2_3_1                 1                       0
     63 d_2_3_2                 1                       0
     65 d_2_4_1                 1                       0
     67 d_2_5_0                 1                       0
     70 d_2_6_0                 1                       0
     71 d_2_6_1                 1                       0
     72 d_2_6_2                 1                    1617
     82 d_4_5_0                 1                     693
     88 d_5_6_0                 1                       0
     89 d_5_6_1                 1                       0
     90 d_5_6_2                 1                       0
